Welcome to the CBC MILP Solver 
Version: 2.10.12 
Build Date: Aug 20 2024 

command line - /opt/homebrew/bin/cbc computational_data/lp/ER_n20_p020_s8.lp seconds 10.0 solve solu computational_data/solutions/ER_n20_p020_s8.sol (default strategy 1)
seconds was changed from 1e+100 to 10
Continuous objective value is 7.66667 - 0.00 seconds
Cgl0003I 0 fixed, 0 tightened bounds, 26 strengthened rows, 0 substitutions
Cgl0003I 0 fixed, 0 tightened bounds, 22 strengthened rows, 0 substitutions
Cgl0003I 0 fixed, 0 tightened bounds, 18 strengthened rows, 0 substitutions
Cgl0004I processed model has 100 rows, 38 columns (38 integer (38 of which binary)) and 416 elements
Cutoff increment increased from 1e-05 to 0.9999
Cbc0038I Initial state - 21 integers unsatisfied sum - 6.59091
Cbc0038I Pass   1: suminf.    6.25000 (17) obj. 8.25 iterations 3
Cbc0038I Pass   2: suminf.    5.00000 (10) obj. 9 iterations 22
Cbc0038I Pass   3: suminf.    5.00000 (10) obj. 9 iterations 9
Cbc0038I Pass   4: suminf.    5.00000 (10) obj. 9 iterations 6
Cbc0038I Pass   5: suminf.    0.00000 (0) obj. 11 iterations 32
Cbc0038I Solution found of 11
Cbc0038I Before mini branch and bound, 14 integers at bound fixed and 0 continuous
Cbc0038I Full problem 100 rows 38 columns, reduced to 64 rows 22 columns
Cbc0038I Mini branch and bound improved solution from 11 to 10 (0.01 seconds)
Cbc0038I Round again with cutoff of 8.92282
Cbc0038I Reduced cost fixing fixed 2 variables on major pass 2
Cbc0038I Pass   6: suminf.    6.25000 (17) obj. 8.25 iterations 0
Cbc0038I Pass   7: suminf.    5.07718 (14) obj. 8.92282 iterations 28
Cbc0038I Pass   8: suminf.    4.65437 (14) obj. 8.92282 iterations 10
Cbc0038I Pass   9: suminf.    4.48770 (21) obj. 8.92282 iterations 6
Cbc0038I Pass  10: suminf.    4.30873 (23) obj. 8.92282 iterations 11
Cbc0038I Pass  11: suminf.    5.92282 (13) obj. 8.92282 iterations 35
Cbc0038I Pass  12: suminf.    5.50000 (11) obj. 8.5 iterations 20
Cbc0038I Pass  13: suminf.    4.73893 (12) obj. 8.92282 iterations 17
Cbc0038I Pass  14: suminf.    4.60739 (13) obj. 8.92282 iterations 9
Cbc0038I Pass  15: suminf.    4.56980 (13) obj. 8.92282 iterations 3
Cbc0038I Pass  16: suminf.    5.16466 (20) obj. 8.92282 iterations 22
Cbc0038I Pass  17: suminf.    4.81849 (20) obj. 8.92282 iterations 8
Cbc0038I Pass  18: suminf.    6.07718 (18) obj. 8.92282 iterations 26
Cbc0038I Pass  19: suminf.    4.67066 (18) obj. 8.92282 iterations 13
Cbc0038I Pass  20: suminf.    3.94967 (16) obj. 8.92282 iterations 6
Cbc0038I Pass  21: suminf.    4.73893 (15) obj. 8.92282 iterations 20
Cbc0038I Pass  22: suminf.    4.51343 (15) obj. 8.92282 iterations 8
Cbc0038I Pass  23: suminf.    4.33893 (16) obj. 8.92282 iterations 7
Cbc0038I Pass  24: suminf.    4.82718 (20) obj. 8.92282 iterations 22
Cbc0038I Pass  25: suminf.    3.94967 (16) obj. 8.92282 iterations 8
Cbc0038I Pass  26: suminf.    3.94967 (16) obj. 8.92282 iterations 1
Cbc0038I Pass  27: suminf.    5.23155 (19) obj. 8.92282 iterations 21
Cbc0038I Pass  28: suminf.    5.23155 (18) obj. 8.92282 iterations 6
Cbc0038I Pass  29: suminf.    4.51659 (21) obj. 8.92282 iterations 19
Cbc0038I Pass  30: suminf.    3.94967 (16) obj. 8.92282 iterations 6
Cbc0038I Pass  31: suminf.    3.94967 (16) obj. 8.92282 iterations 5
Cbc0038I Pass  32: suminf.    5.07718 (12) obj. 8.92282 iterations 14
Cbc0038I Pass  33: suminf.    4.56000 (16) obj. 8.92 iterations 21
Cbc0038I Pass  34: suminf.    4.53515 (20) obj. 8.92282 iterations 6
Cbc0038I Pass  35: suminf.    6.92282 (16) obj. 8.92282 iterations 21
Cbc0038I No solution found this major pass
Cbc0038I Before mini branch and bound, 2 integers at bound fixed and 0 continuous
Cbc0038I Full problem 100 rows 38 columns, reduced to 99 rows 36 columns
Cbc0038I Mini branch and bound did not improve solution (0.03 seconds)
Cbc0038I After 0.03 seconds - Feasibility pump exiting with objective of 10 - took 0.03 seconds
Cbc0012I Integer solution of 10 found by feasibility pump after 0 iterations and 0 nodes (0.03 seconds)
Cbc0038I Full problem 100 rows 38 columns, reduced to 58 rows 19 columns
Cbc0031I 8 added rows had average density of 27.5
Cbc0013I At root node, 36 cuts changed objective from 8.2272727 to 9.0114679 in 15 passes
Cbc0014I Cut generator 0 (Probing) - 0 row cuts average 0.0 elements, 0 column cuts (0 active)  in 0.001 seconds - new frequency is -100
Cbc0014I Cut generator 1 (Gomory) - 190 row cuts average 33.5 elements, 0 column cuts (0 active)  in 0.002 seconds - new frequency is 1
Cbc0014I Cut generator 2 (Knapsack) - 0 row cuts average 0.0 elements, 0 column cuts (0 active)  in 0.001 seconds - new frequency is -100
Cbc0014I Cut generator 3 (Clique) - 0 row cuts average 0.0 elements, 0 column cuts (0 active)  in 0.000 seconds - new frequency is -100
Cbc0014I Cut generator 4 (MixedIntegerRounding2) - 0 row cuts average 0.0 elements, 0 column cuts (0 active)  in 0.001 seconds - new frequency is -100
Cbc0014I Cut generator 5 (FlowCover) - 0 row cuts average 0.0 elements, 0 column cuts (0 active)  in 0.000 seconds - new frequency is -100
Cbc0014I Cut generator 6 (TwoMirCuts) - 78 row cuts average 32.8 elements, 0 column cuts (0 active)  in 0.002 seconds - new frequency is -100
Cbc0014I Cut generator 7 (ZeroHalf) - 40 row cuts average 10.9 elements, 0 column cuts (0 active)  in 0.016 seconds - new frequency is 1
Cbc0001I Search completed - best objective 10, took 394 iterations and 0 nodes (0.06 seconds)
Cbc0035I Maximum depth 0, 2 variables fixed on reduced cost
Cuts at root node changed objective from 8.22727 to 9.01147
Probing was tried 15 times and created 0 cuts of which 0 were active after adding rounds of cuts (0.001 seconds)
Gomory was tried 15 times and created 190 cuts of which 0 were active after adding rounds of cuts (0.002 seconds)
Knapsack was tried 15 times and created 0 cuts of which 0 were active after adding rounds of cuts (0.001 seconds)
Clique was tried 15 times and created 0 cuts of which 0 were active after adding rounds of cuts (0.000 seconds)
MixedIntegerRounding2 was tried 15 times and created 0 cuts of which 0 were active after adding rounds of cuts (0.001 seconds)
FlowCover was tried 15 times and created 0 cuts of which 0 were active after adding rounds of cuts (0.000 seconds)
TwoMirCuts was tried 15 times and created 78 cuts of which 0 were active after adding rounds of cuts (0.002 seconds)
ZeroHalf was tried 15 times and created 40 cuts of which 0 were active after adding rounds of cuts (0.016 seconds)

Result - Optimal solution found

Objective value:                10.00000000
Enumerated nodes:               0
Total iterations:               394
Time (CPU seconds):             0.06
Time (Wallclock seconds):       0.07

Total time (CPU seconds):       0.06   (Wallclock seconds):       0.07

